row=8;
Board=[|-1,7,3,2,6,1,-1,-1,5,0|1,2,-1,9,3,-1,0,-1,-1,-1|4,6,7,-1,8,-1,9,-1,2,-1|-1,-1,4,5,-1,2,8,6,-1,-1|4,-1,1,2,-1,-1,-1,-1,-1,-1|-1,9,7,-1,0,1,-1,-1,-1,-1|3,0,-1,-1,-1,-1,8,1,9,-1|-1,8,-1,9,-1,-1,6,0,-1,1|];
bottom=[26,47,37,37,28,27,50,41,48,19]